Route #1: 26 53 59 14 35 7
Route #2: 11 38 10 58 12
Route #3: 17 40 9 31 39
Route #4: 32 25 55 18 50 44 3 51
Route #5: 6 1 62 28 2
Route #6: 33 63 23 56 24 49 16
Route #7: 43 41 42 64 22 61 21
Route #8: 47 36 60 20 37 15 57 27
Route #9: 34 52 13 54 19 8 46
Route #10: 30 48 5 29 45 4
Cost 819